StudentsNr = 10;
InstructorsNr = 46;
DaysNr = 1;
SlotsPerDay = 15;
AvailabilitySlotsLenght = 1;
RoomNr = 1;
ProgrammNr = 1;
DegreeNr = 2;
RolesNr = 3;
CoursesNr = 7;
InstructorsProgramm = [{1}, {1}, {1}, {1}, {1}, {1}, {1}, {1}, {1}, {1}, {1}, {1}, {1}, {1}, {1}, {1}, {1}, {1}, {1}, {1}, {1}, {1}, {1}, {1}, {1}, {1}, {1}, {1}, {1}, {1}, {1}, {1}, {1}, {1}, {1}, {1}, {1}, {1}, {1}, {1}, {1}, {1}, {1}, {1}, {1}, {1}];
InstructorRolesPerProgramm = [|{4, 8, 9, 11, 14, 15, 17, 19, 20, 22, 25, 26, 27, 33, 36, 37, 38, 40, 43, 44}, {8, 11, 12, 13, 14, 16, 18, 22, 23, 24, 30, 35, 36, 37, 41, 43}, {2, 5, 11, 12, 13, 17, 20, 21, 23, 24, 26, 27, 28, 33, 36, 39, 43, 44, 45}|];
InstructorsAvailability = [|1, 1, 1, 1, 1, 1, 0, 1, 1, 1, 1, 1, 0, 1, 1, |0, 0, 0, 1, 1, 1, 1, 1, 1, 0, 1, 1, 1, 1, 1, |1, 0, 1, 1, 1, 1, 1, 1, 1, 1, 1, 1, 1, 0, 0, |0, 1, 1, 1, 1, 0, 1, 1, 1, 1, 1, 1, 1, 1, 1, |1, 1, 1, 1, 0, 0, 0, 0, 1, 1, 1, 1, 1, 1, 1, |0, 1, 0, 0, 0, 0, 0, 1, 1, 1, 1, 1, 1, 1, 1, |0, 1, 0, 1, 1, 1, 1, 0, 0, 1, 1, 1, 0, 1, 1, |0, 0, 1, 1, 0, 1, 1, 1, 1, 1, 1, 1, 1, 1, 1, |0, 1, 1, 1, 1, 1, 1, 1, 1, 1, 0, 1, 1, 1, 1, |1, 1, 1, 1, 0, 0, 0, 0, 0, 1, 0, 1, 1, 1, 1, |1, 1, 1, 0, 1, 1, 1, 1, 1, 1, 1, 1, 1, 1, 1, |1, 1, 1, 1, 1, 1, 1, 1, 1, 1, 1, 1, 1, 1, 1, |0, 1, 1, 1, 1, 1, 0, 1, 0, 0, 1, 1, 1, 1, 1, |1, 0, 0, 0, 1, 1, 0, 0, 1, 1, 1, 1, 1, 1, 1, |0, 1, 1, 0, 1, 1, 1, 1, 1, 1, 1, 0, 0, 0, 0, |0, 0, 1, 1, 1, 1, 1, 1, 1, 1, 0, 0, 1, 1, 1, |1, 1, 1, 1, 1, 1, 1, 1, 0, 1, 1, 1, 1, 0, 1, |0, 0, 1, 1, 1, 1, 1, 1, 1, 1, 1, 1, 1, 1, 1, |1, 1, 1, 1, 1, 0, 1, 1, 1, 0, 0, 1, 0, 1, 1, |1, 1, 1, 0, 1, 1, 1, 1, 1, 1, 1, 1, 1, 0, 1, |0, 1, 1, 1, 1, 1, 1, 0, 0, 0, 0, 1, 0, 0, 0, |1, 1, 1, 1, 1, 1, 1, 1, 1, 1, 1, 0, 0, 1, 1, |1, 1, 1, 0, 0, 0, 0, 1, 1, 0, 1, 0, 0, 0, 0, |0, 0, 1, 0, 1, 1, 1, 1, 1, 1, 1, 0, 1, 1, 1, |0, 1, 0, 1, 1, 1, 1, 1, 1, 1, 1, 1, 1, 1, 1, |0, 0, 0, 1, 0, 0, 0, 0, 1, 1, 0, 0, 1, 1, 1, |1, 1, 1, 1, 1, 1, 1, 1, 1, 1, 1, 1, 1, 0, 1, |0, 1, 1, 1, 1, 1, 1, 1, 1, 1, 1, 1, 1, 1, 1, |0, 1, 1, 1, 0, 0, 1, 0, 0, 0, 1, 0, 1, 1, 1, |1, 0, 0, 0, 1, 1, 1, 1, 1, 1, 1, 1, 1, 1, 1, |1, 1, 1, 1, 1, 0, 0, 1, 0, 1, 1, 1, 1, 1, 0, |1, 1, 1, 1, 1, 1, 1, 1, 1, 1, 1, 1, 1, 0, 1, |0, 1, 0, 1, 0, 0, 1, 1, 1, 1, 1, 1, 1, 1, 1, |1, 1, 1, 0, 1, 1, 1, 1, 1, 1, 1, 1, 1, 1, 1, |0, 1, 1, 1, 1, 1, 1, 0, 1, 1, 0, 0, 1, 1, 1, |0, 1, 1, 1, 1, 1, 1, 1, 1, 1, 1, 1, 1, 1, 1, |0, 1, 1, 1, 1, 1, 1, 1, 1, 1, 1, 1, 1, 1, 1, |0, 1, 1, 1, 1, 1, 1, 1, 1, 1, 1, 1, 1, 1, 1, |1, 1, 1, 1, 1, 0, 1, 0, 1, 0, 0, 1, 1, 0, 1, |0, 0, 0, 1, 1, 1, 1, 1, 1, 1, 1, 1, 0, 1, 1, |1, 1, 1, 1, 1, 1, 1, 1, 1, 1, 1, 1, 1, 1, 1, |1, 0, 1, 1, 1, 0, 1, 0, 1, 1, 1, 1, 1, 1, 1, |1, 0, 1, 1, 1, 1, 1, 1, 1, 1, 1, 1, 1, 1, 1, |0, 1, 1, 1, 1, 1, 1, 0, 0, 0, 0, 0, 0, 0, 1, |1, 1, 1, 1, 1, 1, 1, 1, 1, 1, 1, 1, 1, 1, 0, |0, 0, 1, 1, 0, 0, 0, 0, 1, 1, 1, 1, 1, 1, 1|];
StudentsProgramm = [1, 1, 1, 1, 1, 1, 1, 1, 1, 1];
StudentsDegree = [1, 2, 2, 2, 2, 1, 2, 1, 2, 2];
StudentsSupervisorId = [35, 44, 20, 33, 29, 16, 32, 25, 17, 2];
StudentsCourseIds = [{1, 2, 3, 4, 5, 6}, {1, 2, 3, 5, 7}, {1, 2, 3, 4, 5}, {1, 3, 4, 5, 7}, {1, 2, 3, 4, 7}, {1, 2, 3, 4, 5, 6}, {1, 4, 5, 6, 7}, {1, 3, 4, 5, 6, 7}, {1, 2, 3, 4, 5}, {1, 2, 4, 5, 6}];
StudentsAvailability = [|1, 1, 1, 1, 1, 1, 1, 1, 0, 1, 1, 1, 1, 1, 1, |0, 1, 1, 0, 1, 1, 1, 1, 1, 1, 1, 1, 1, 1, 1, |0, 1, 1, 1, 1, 1, 1, 0, 1, 1, 1, 1, 0, 1, 1, |0, 1, 1, 1, 1, 1, 1, 1, 1, 1, 1, 1, 1, 1, 1, |0, 1, 1, 1, 1, 1, 1, 1, 1, 1, 1, 1, 1, 1, 1, |1, 1, 1, 0, 0, 0, 1, 1, 1, 1, 0, 1, 1, 1, 1, |1, 0, 1, 1, 1, 0, 0, 0, 1, 0, 0, 1, 1, 1, 1, |1, 1, 1, 1, 1, 1, 1, 1, 1, 1, 1, 1, 1, 1, 1, |1, 1, 1, 1, 1, 1, 0, 0, 1, 1, 1, 1, 1, 1, 1, |1, 1, 1, 0, 1, 0, 1, 1, 1, 0, 1, 1, 1, 1, 1|];
TheoryticalMinCard = [0, 0, 0, 0, 0, 0, 0, 0, 0, 0];
CoursesInstructorIds = [{6, 11, 18, 31, 32, 41}, {7, 15, 20, 21, 22, 23, 25, 29, 32, 34, 35, 36, 37, 39, 40, 45}, {1, 2, 3, 4, 5, 6, 10, 11, 12, 15, 17, 18, 20, 22, 23, 24, 27, 28, 33, 35, 37, 39, 41, 43}, {1, 2, 3, 4, 6, 7, 8, 11, 13, 16, 19, 22, 24, 26, 30, 32, 36, 38, 39, 42, 44}, {1, 2, 3, 8, 12, 15, 17, 21, 22, 24, 25, 27, 28, 29, 30, 31, 33, 34, 36, 37, 38, 39, 41, 43, 45, 46}, {8, 9, 12, 17, 18, 23, 25, 26, 27, 28, 32, 33, 35, 38, 42}, {2, 4, 5, 6, 7, 8, 14, 16, 19, 20, 21, 22, 23, 26, 27, 28, 33, 35, 40, 41, 46}];
RolesDemands = [15, 10, 1];
RolesContinuity = [2];
ExamLen = [1, 1, 1, 1, 1, 1, 1, 1, 1, 1];
LunchTsMinLen = 0;
LunchStarts = [4..8];
SupervisorAvailable = 0;
OptimalLunchLenght = [2, 0];
OptimalStartTs = [0, 0];
OptimalFinishTs = [1, 15];
MinimizeRooms = 400;
RolesSoftContinuity = [|1, 2, 3|0, 1, 4|];
SameDegreeInRoom = 20;
Mergeability = 2;
